Comps = {frontend0, frontend1, backend0, backend1, database0, database1};
mustComps = {frontend0, frontend1};
Flavs = {tiny, medium, large};
Nodes = {n1, n2, n3};
CRes = {CPU, RAM, storage, bwIn, bwOut};
NRes = {ssl, fwall, encr, avail, latency};
Flav = [{medium, large}, {medium, large}, {tiny, medium, large}, {tiny, medium, large}, {large}, {large}];
Uses = array2d(CompFlavs, CompFlavs, [
	0,0,0,0,0,0,0,1,0,0,0,0,
	0,0,0,0,0,0,0,1,0,0,0,0,
	0,0,0,0,0,0,0,1,0,0,0,0,
	0,0,0,0,0,0,0,1,0,0,0,0,
	0,0,0,0,0,0,0,0,0,0,0,0,
	0,0,0,0,0,0,0,0,0,1,0,0,
	0,0,0,0,0,0,0,0,0,1,0,0,
	0,0,0,0,0,0,0,0,0,0,0,0,
	0,0,0,0,0,0,0,0,0,1,0,0,
	0,0,0,0,0,0,0,0,0,1,0,0,
	0,0,0,0,0,0,0,0,0,0,0,0,
	0,0,0,0,0,0,0,0,0,0,0,0,
]);
mayUse = array2d(Comps, CompFlavs, [
	0,0,0,0,0,0,0,0,0,0,0,0,
	0,0,0,0,0,0,0,0,0,0,0,0,
	0,0,0,0,0,0,0,0,0,0,0,0,
	1,1,1,1,0,1,1,0,1,1,0,0,
	0,0,0,0,0,0,0,0,0,0,0,0,
	0,0,0,0,0,0,0,0,0,0,0,0,
]);
MIN_RBOUNDS = 0;
MAX_RBOUNDS = 1000000;

worstBounds = [0, 0, 0, 0, 0, 0, 0, 0, 0, MAX_RBOUNDS];
bestBounds = [MAX_RBOUNDS - i | i in worstBounds];

comReq = array2d(CompFlavs, Res, [
  4, 480, 363, 208, 646, 1, 0, 0, 97, MAX_RBOUNDS,
  4, 418, 277, 224, 818, 1, 0, 1, 96, MAX_RBOUNDS,
  2, 228, 470, 668, 241, 0, 1, 0, 95, MAX_RBOUNDS,
  4, 450, 230, 412, 631, 1, 0, 1, 97, MAX_RBOUNDS,
  4, 447, 352, 211, 529, 1, 0, 0, 95, MAX_RBOUNDS,
  2, 216, 488, 267, 548, 1, 0, 0, 96, MAX_RBOUNDS,
  4, 241, 201, 252, 951, 1, 1, 1, 95, MAX_RBOUNDS,
  4, 430, 240, 846, 709, 1, 0, 0, 96, MAX_RBOUNDS,
  2, 395, 472, 625, 761, 1, 1, 1, 96, MAX_RBOUNDS,
  2, 255, 373, 249, 626, 1, 1, 0, 96, MAX_RBOUNDS,
  8, 375, 239, 516, 596, 0, 1, 1, 97, MAX_RBOUNDS,
  2, 318, 321, 870, 273, 1, 0, 1, 95, MAX_RBOUNDS,
]);

nodeCap = array2d(Nodes0, Res, [bestBounds[r] | r in Res] ++ [
  16, 73492, 730626, 24325, 11091, 1, 1, 1, 98, 0,
  32, 96381, 540659, 10715, 10007, 1, 0, 1, 99, 0,
  16, 85679, 207535, 24083, 14081, 1, 1, 1, 99, 0,
]);

cost = array2d(Nodes0, Res, [
  0, 0, 0, 0, 0, 0, 0, 0, 0, 0, % no node
  16, 5, 19, 0, 0, 0, 0, 0, 0, 0,
  17, 8, 19, 0, 0, 0, 0, 0, 0, 0,
  11, 9, 18, 0, 0, 0, 0, 0, 0, 0,
]);

carb = array2d(Nodes0, Res, [
  0, 0, 0, 0, 0, 0, 0, 0, 0, 0, % no node
  25, 50, 33, 0, 0, 0, 0, 0, 0, 0,
  6, 23, 41, 0, 0, 0, 0, 0, 0, 0,
  8, 17, 21, 0, 0, 0, 0, 0, 0, 0,
]);

costBudget = 36599;
carbBudget = 37759;

depReq = array4d(Comps, Flavs, Comps, Res, [
  if c1 = frontend0 /\ c2 = backend1 /\ r = N(avail) then
    97
  elseif c1 = frontend1 /\ c2 = backend0 /\ r = N(avail) then
    96
  elseif c1 = frontend0 /\ c2 = backend0 /\ r = N(avail) then
    96
  else
    worstBounds[r]
  endif | c1 in Comps, i in Flavs, c2 in Comps, r in Res]);

linkCap = array3d(Nodes0, Nodes0, Res, [
  if ni = 0 \/ nj = 0 then
    bestBounds[r]
  elseif ni = nj /\ r = N(avail) then
    nodeCap[ni,r]
  elseif {ni, nj} = {n1, n3} /\ r = N(avail) then
    99
  elseif {ni, nj} = {n1, n2} /\ r = N(avail) then
    98
  elseif {ni, nj} = {n2, n3} /\ r = N(avail) then
    98
  else
    worstBounds[r]
  endif | ni in Nodes0, nj in Nodes0, r in Res]);

imp = array2d(Comps, Flavs, [
  1, 5, 7,
  3, 5, 6,
  2, 3, 8,
  1, 4, 7,
  2, 4, 5,
  3, 5, 7,
]);

